10J3M/DAT/10J3MUTX-15.dat
10 3
22.2951 4.7218
11.6449 3.4125
8.943 2.9905
44.903 6.701
7.0473 2.6547
46.0912 6.7891
21.8116 4.6703
14.7008 3.8342
1.4674 1.2114
0.8026 0.8959
9.4703