10J3M/SOL/10J3MUTX-15.sol
solution status: optimal solution found
objective value:                     87.1821085546832
x#2#2                                               1 	(obj:0)
x#4#1                               0.972164023669519 	(obj:0)
x#4#2                              0.0278359763304814 	(obj:0)
x#5#2                                0.33289172391233 	(obj:0)
x#6#1                               0.177855974390749 	(obj:0)
x#6#2                               0.752714456472854 	(obj:0)
x#6#3                              0.0694295691363995 	(obj:0)
x#7#1                               0.959976444749887 	(obj:0)
x#7#3                              0.0400235552501131 	(obj:0)
x#8#3                                               1 	(obj:0)
x#9#3                                               1 	(obj:0)
z                                    87.1821085546832 	(obj:1)
